Route #1: 6 33 1 62 2 30
Route #2: 4 52 34 46 8 7
Route #3: 35 14 59 11 53
Route #4: 19 54 13 27 45 29 48
Route #5: 5 47 36 60 20 37 15 57
Route #6: 21 61 28 22 64 42
Route #7: 63 43 41 56 23 24 49 16
Route #8: 51 3 44 32 50 18 55 25
Route #9: 58 38 10 31 40
Route #10: 17 9 39 12 26
Cost 849